
===== New CPLEX run =====
Instance: /home/yorig/tuner/mpils-tests/instances/miplib/easy/lotsize.mps
Config: /scratch/yorig/mpils-results-grid-ticks-10000/easy/16proc/seed-9/4_lotsize_seed-9_20260425_202405/iterated_local_search/run_2_worker_2/ils_config_18263857680206460353.prm
========================

Selected objective sense:  MINIMIZE
Selected objective  name:  R1921
Selected RHS        name:  B
Selected bound      name:  BOUND
Version identifier: 22.1.2.0 | 2024-11-26 | 0edbb82fd
CPXPARAM_Threads                                 8
CPXPARAM_Parallel                                1
CPXPARAM_MIP_Cuts_Cliques                        1
CPXPARAM_MIP_Strategy_VariableSelect             1
CPXPARAM_MIP_Cuts_FlowCovers                     1
CPXPARAM_MIP_Cuts_Implied                        2
CPXPARAM_MIP_Cuts_GUBCovers                      2
CPXPARAM_MIP_Cuts_Gomory                         -1
CPXPARAM_MIP_Cuts_PathCut                        2
CPXPARAM_MIP_Cuts_MIRCut                         1
CPXPARAM_DetTimeLimit                            10000
Tried aggregator 1 time.
MIP Presolve eliminated 595 rows and 0 columns.
MIP Presolve added 1190 rows and 0 columns.
MIP Presolve modified 10 coefficients.
Reduced MIP has 2515 rows, 2985 columns, and 7755 nonzeros.
Reduced MIP has 1195 binaries, 0 generals, 0 SOSs, and 0 indicators.
Presolve time = 0.00 sec. (4.53 ticks)
Probing fixed 0 vars, tightened 5487 bounds.
Probing time = 0.01 sec. (18.38 ticks)
Tried aggregator 2 times.
Detecting symmetries...
MIP Presolve modified 1206 coefficients.
Aggregator did 10 substitutions.
Reduced MIP has 2505 rows, 2975 columns, and 7735 nonzeros.
Reduced MIP has 1195 binaries, 0 generals, 0 SOSs, and 0 indicators.
Presolve time = 0.00 sec. (6.66 ticks)
Probing fixed 0 vars, tightened 2401 bounds.
Probing time = 0.00 sec. (6.41 ticks)
Clique table members: 190.
MIP emphasis: balance optimality and feasibility.
MIP search method: dynamic search.
Parallel mode: deterministic, using up to 8 threads.
Root relaxation solution time = 0.01 sec. (9.71 ticks)

        Nodes                                         Cuts/
   Node  Left     Objective  IInf  Best Integer    Best Bound    ItCnt     Gap

      0     0   348385.3466   472                 348385.3466      882         
      0     0   583577.4049   435                   Cuts: 726     1819         
      0     0   818290.4051   692                   Cuts: 726     2653         
*     0+    0                       1.01740e+07   818290.4051            91.96%
*     0+    0                      7973370.0000   818290.4051            89.74%
      0     0   947113.9594   686  7973370.0000     Cuts: 726     3332   88.12%
      0     0  1041522.9402   741  7973370.0000     Cuts: 726     3991   86.94%
      0     0  1104591.7104   745  7973370.0000     Cuts: 726     4646   86.15%
Detecting symmetries...
      0     0  1147736.4040   739  7973370.0000     Cuts: 666     5259   85.61%
*     0+    0                      2172244.0000  1147736.4040            47.16%
      0     0  1195524.2338   760  2172244.0000     Cuts: 725     5878   44.96%
*     0+    0                      1933756.0000  1195524.2338            38.18%
      0     0  1220541.5980   751  1933756.0000     Cuts: 656     6399   36.88%
      0     0  1237512.9740   749  1933756.0000     Cuts: 578     6868   36.00%
      0     0  1252300.3919   803  1933756.0000     Cuts: 453     7291   35.24%
      0     0  1261857.2877   789  1933756.0000     Cuts: 467     7671   34.75%
      0     0  1268998.1552   826  1933756.0000     Cuts: 407     8054   34.38%
      0     0  1275955.7430   819  1933756.0000     Cuts: 433     8412   34.02%
      0     0  1279232.1875   832  1933756.0000     Cuts: 293     8650   33.85%
      0     0  1282626.6423   839  1933756.0000     Cuts: 272     8903   33.67%
      0     0  1286567.7540   839  1933756.0000     Cuts: 255     9105   33.47%
      0     0  1288329.1751   838  1933756.0000     Cuts: 228     9254   33.38%
      0     0  1291079.2856   843  1933756.0000     Cuts: 137     9479   33.23%
      0     0  1293056.3790   834  1933756.0000     Cuts: 144     9643   33.13%
      0     0  1294229.6815   859  1933756.0000     Cuts: 182     9795   33.07%
      0     0  1295647.8993   859  1933756.0000     Cuts: 115     9961   33.00%
      0     0  1296089.2099   872  1933756.0000      Cuts: 72    10077   32.98%
      0     0  1296540.4224   858  1933756.0000     Cuts: 157    10179   32.95%
      0     0  1296756.8732   871  1933756.0000      Cuts: 96    10250   32.94%
      0     0  1297502.1380   862  1933756.0000      Cuts: 54    10361   32.79%
      0     0  1309487.4751   826  1933756.0000     Cuts: 109    10658   32.28%
      0     0  1317675.2517   852  1933756.0000     Cuts: 318    10950   31.86%
      0     0  1321765.5429   844  1933756.0000     Cuts: 267    11196   31.65%
      0     0  1325120.6243   863  1933756.0000     Cuts: 220    11452   31.47%
      0     0  1328270.1637   861  1933756.0000     Cuts: 243    11674   31.31%
      0     0  1329980.5095   873  1933756.0000     Cuts: 231    11858   31.22%
      0     0  1330625.4854   894  1933756.0000     Cuts: 143    11990   31.19%
      0     0  1331088.1865   887  1933756.0000      Cuts: 82    12053   31.17%
      0     0  1331426.1535   884  1933756.0000      Cuts: 39    12103   31.15%
*     0+    0                      1910369.0000  1331426.1535            30.31%
Detecting symmetries...
      0     2  1331426.1535   884  1910369.0000  1331426.1535    12103   30.31%
Elapsed time = 4.65 sec. (7614.60 ticks, tree = 0.02 MB, solutions = 5)
      8    10  1337703.1263   860  1910369.0000  1331466.2579    13046   30.30%
     17     7  1334725.3272   851  1910369.0000  1331466.2579    12703   30.30%
     48    44  1336566.4600   841  1910369.0000  1331466.2579    17691   30.30%
     91    73  1341568.9801   824  1910369.0000  1331979.6090    21002   30.28%
    160   136  1350445.5962   720  1910369.0000  1331979.6090    27679   30.28%
    238   188  1356065.0843   677  1910369.0000  1331979.6090    32223   30.28%
    294   275  1355143.6304   712  1910369.0000  1331979.6090    40149   30.28%
    367   302  1359697.6966   669  1910369.0000  1331979.6090    42776   30.28%
    432   376  1355248.9164   687  1910369.0000  1331979.6090    50527   30.28%

GUB cover cuts applied:  0
Clique cuts applied:  1
Cover cuts applied:  10
Implied bound cuts applied:  23
Flow cuts applied:  439
Mixed integer rounding cuts applied:  1089
Flow path cuts applied:  50
Multi commodity flow cuts applied:  34

Root node processing (before b&c):
  Real time             =    4.64 sec. (7607.22 ticks)
Parallel b&c, 8 threads:
  Real time             =    1.53 sec. (2399.11 ticks)
  Sync time (average)   =    0.26 sec.
  Wait time (average)   =    0.00 sec.
                          ------------
Total (root+branch&cut) =    6.16 sec. (10006.33 ticks)
Gap: 30.28%
Upper bound: 1.91037e+06
Lower bound: 1.33198e+06
End of CPLEX run. Time: 6.16533 seconds

===== New CPLEX run =====
Instance: /home/yorig/tuner/mpils-tests/instances/miplib/easy/lotsize.mps
Config: /scratch/yorig/mpils-results-grid-ticks-10000/easy/16proc/seed-9/4_lotsize_seed-9_20260425_202405/iterated_local_search/run_2_worker_2/ils_config_3992507077274840235.prm
========================

Selected objective sense:  MINIMIZE
Selected objective  name:  R1921
Selected RHS        name:  B
Selected bound      name:  BOUND
Version identifier: 22.1.2.0 | 2024-11-26 | 0edbb82fd
CPXPARAM_Threads                                 8
CPXPARAM_Parallel                                1
CPXPARAM_MIP_Cuts_Cliques                        1
CPXPARAM_MIP_Strategy_VariableSelect             1
CPXPARAM_MIP_Cuts_FlowCovers                     1
CPXPARAM_MIP_Cuts_Implied                        2
CPXPARAM_MIP_Cuts_GUBCovers                      2
CPXPARAM_MIP_Cuts_Gomory                         -1
CPXPARAM_MIP_Cuts_PathCut                        2
CPXPARAM_MIP_Cuts_MIRCut                         1
CPXPARAM_Emphasis_MIP                            4
CPXPARAM_DetTimeLimit                            10000
Tried aggregator 1 time.
MIP Presolve eliminated 595 rows and 0 columns.
MIP Presolve added 1190 rows and 0 columns.
MIP Presolve modified 10 coefficients.
Reduced MIP has 2515 rows, 2985 columns, and 7755 nonzeros.
Reduced MIP has 1195 binaries, 0 generals, 0 SOSs, and 0 indicators.
Presolve time = 0.00 sec. (4.53 ticks)
Probing fixed 0 vars, tightened 5487 bounds.
Probing time = 0.01 sec. (18.38 ticks)
Tried aggregator 2 times.
Detecting symmetries...
MIP Presolve modified 1206 coefficients.
Aggregator did 10 substitutions.
Reduced MIP has 2505 rows, 2975 columns, and 7735 nonzeros.
Reduced MIP has 1195 binaries, 0 generals, 0 SOSs, and 0 indicators.
Presolve time = 0.00 sec. (6.66 ticks)
Probing fixed 0 vars, tightened 2401 bounds.
Probing time = 0.00 sec. (6.41 ticks)
Clique table members: 190.
MIP emphasis: hidden feasible solutions.
MIP search method: dynamic search.
Parallel mode: deterministic, using up to 8 threads.
Root relaxation solution time = 0.01 sec. (9.71 ticks)

        Nodes                                         Cuts/
   Node  Left     Objective  IInf  Best Integer    Best Bound    ItCnt     Gap

      0     0   348385.3466   472                 348385.3466      882         
      0     0   583577.4049   435                   Cuts: 726     1819         
      0     0   818290.4051   692                   Cuts: 726     2653         
*     0+    0                       1.01740e+07   818290.4051            91.96%
*     0+    0                      7973370.0000   818290.4051            89.74%
      0     0   947113.9594   686  7973370.0000     Cuts: 726     3332   88.12%
      0     0  1041522.9402   741  7973370.0000     Cuts: 726     3991   86.94%
      0     0  1104591.7104   745  7973370.0000     Cuts: 726     4646   86.15%
Detecting symmetries...
      0     0  1147736.4040   739  7973370.0000     Cuts: 666     5259   85.61%
*     0+    0                      2172244.0000  1147736.4040            47.16%
      0     0  1195524.2338   760  2172244.0000     Cuts: 725     5878   44.96%
*     0+    0                      1933756.0000  1195524.2338            38.18%
      0     0  1220541.5980   751  1933756.0000     Cuts: 656     6399   36.88%
      0     0  1237512.9740   749  1933756.0000     Cuts: 578     6868   36.00%
      0     0  1252300.3919   803  1933756.0000     Cuts: 453     7291   35.24%
      0     0  1261857.2877   789  1933756.0000     Cuts: 467     7671   34.75%
      0     0  1268998.1552   826  1933756.0000     Cuts: 407     8054   34.38%
      0     0  1275955.7430   819  1933756.0000     Cuts: 433     8412   34.02%
      0     0  1279232.1875   832  1933756.0000     Cuts: 293     8650   33.85%
      0     0  1282626.6423   839  1933756.0000     Cuts: 272     8903   33.67%
      0     0  1286567.7540   839  1933756.0000     Cuts: 255     9105   33.47%
      0     0  1288329.1751   838  1933756.0000     Cuts: 228     9254   33.38%
      0     0  1291079.2856   843  1933756.0000     Cuts: 137     9479   33.23%
      0     0  1293056.3790   834  1933756.0000     Cuts: 144     9643   33.13%
      0     0  1294229.6815   859  1933756.0000     Cuts: 182     9795   33.07%
      0     0  1295647.8993   859  1933756.0000     Cuts: 115     9961   33.00%
      0     0  1296089.2099   872  1933756.0000      Cuts: 72    10077   32.98%
      0     0  1296540.4224   858  1933756.0000     Cuts: 157    10179   32.95%
      0     0  1296756.8732   871  1933756.0000      Cuts: 96    10250   32.94%
      0     0  1297502.1380   862  1933756.0000      Cuts: 54    10361   32.79%
      0     0  1309487.4751   826  1933756.0000     Cuts: 109    10658   32.28%
      0     0  1317675.2517   852  1933756.0000     Cuts: 318    10950   31.86%
      0     0  1321765.5429   844  1933756.0000     Cuts: 267    11196   31.65%
      0     0  1325120.6243   863  1933756.0000     Cuts: 220    11452   31.47%
      0     0  1328270.1637   861  1933756.0000     Cuts: 243    11674   31.31%
      0     0  1329980.5095   873  1933756.0000     Cuts: 231    11858   31.22%
      0     0  1330625.4854   894  1933756.0000     Cuts: 143    11990   31.19%
      0     0  1331088.1865   887  1933756.0000      Cuts: 82    12053   31.17%
      0     0  1331426.1535   884  1933756.0000      Cuts: 39    12103   31.15%
*     0+    0                      1910369.0000  1331426.1535            30.31%

GUB cover cuts applied:  0
Clique cuts applied:  1
Cover cuts applied:  10
Implied bound cuts applied:  21
Flow cuts applied:  439
Mixed integer rounding cuts applied:  1089
Flow path cuts applied:  30
Multi commodity flow cuts applied:  34

Root node processing (before b&c):
  Real time             =    6.21 sec. (10007.18 ticks)
Parallel b&c, 8 threads:
  Real time             =    0.00 sec. (0.00 ticks)
  Sync time (average)   =    0.00 sec.
  Wait time (average)   =    0.00 sec.
                          ------------
Total (root+branch&cut) =    6.21 sec. (10007.18 ticks)
Gap: 30.31%
Upper bound: 1.91037e+06
Lower bound: 1.33143e+06
End of CPLEX run. Time: 6.21342 seconds

===== New CPLEX run =====
Instance: /home/yorig/tuner/mpils-tests/instances/miplib/easy/lotsize.mps
Config: /scratch/yorig/mpils-results-grid-ticks-10000/easy/16proc/seed-9/4_lotsize_seed-9_20260425_202405/iterated_local_search/run_2_worker_2/ils_config_13153978256591703258.prm
========================

Selected objective sense:  MINIMIZE
Selected objective  name:  R1921
Selected RHS        name:  B
Selected bound      name:  BOUND
Version identifier: 22.1.2.0 | 2024-11-26 | 0edbb82fd
CPXPARAM_Threads                                 8
CPXPARAM_Parallel                                1
CPXPARAM_MIP_Cuts_Cliques                        -1
CPXPARAM_MIP_Strategy_VariableSelect             1
CPXPARAM_MIP_Cuts_FlowCovers                     1
CPXPARAM_MIP_Cuts_Implied                        2
CPXPARAM_MIP_Cuts_GUBCovers                      2
CPXPARAM_MIP_Cuts_Gomory                         -1
CPXPARAM_MIP_Cuts_PathCut                        2
CPXPARAM_MIP_Cuts_MIRCut                         1
CPXPARAM_DetTimeLimit                            10000
Tried aggregator 1 time.
MIP Presolve eliminated 595 rows and 0 columns.
MIP Presolve added 1190 rows and 0 columns.
MIP Presolve modified 10 coefficients.
Reduced MIP has 2515 rows, 2985 columns, and 7755 nonzeros.
Reduced MIP has 1195 binaries, 0 generals, 0 SOSs, and 0 indicators.
Presolve time = 0.00 sec. (4.53 ticks)
Probing fixed 0 vars, tightened 5487 bounds.
Probing time = 0.01 sec. (18.38 ticks)
Tried aggregator 2 times.
Detecting symmetries...
MIP Presolve modified 1206 coefficients.
Aggregator did 10 substitutions.
Reduced MIP has 2505 rows, 2975 columns, and 7735 nonzeros.
Reduced MIP has 1195 binaries, 0 generals, 0 SOSs, and 0 indicators.
Presolve time = 0.01 sec. (6.66 ticks)
Probing fixed 0 vars, tightened 2401 bounds.
Probing time = 0.00 sec. (6.41 ticks)
Clique table members: 190.
MIP emphasis: balance optimality and feasibility.
MIP search method: dynamic search.
Parallel mode: deterministic, using up to 8 threads.
Root relaxation solution time = 0.01 sec. (9.71 ticks)

        Nodes                                         Cuts/
   Node  Left     Objective  IInf  Best Integer    Best Bound    ItCnt     Gap

      0     0   348385.3466   472                 348385.3466      882         
      0     0   583577.4049   435                   Cuts: 726     1819         
      0     0   818318.0498   693                   Cuts: 726     2654         
*     0+    0                       1.01740e+07   818318.0498            91.96%
*     0+    0                      7973370.0000   818318.0498            89.74%
      0     0   947721.4943   683  7973370.0000     Cuts: 726     3340   88.11%
      0     0  1038019.7306   756  7973370.0000     Cuts: 726     3989   86.98%
      0     0  1103123.4400   758  7973370.0000     Cuts: 726     4650   86.16%
Detecting symmetries...
*     0+    0                      2214406.0000  1103123.4400            50.18%
      0     0  1153435.3788   763  2214406.0000     Cuts: 711     5305   47.91%
*     0+    0                      1933756.0000  1153435.3788            40.35%
      0     0  1188937.2824   768  1933756.0000     Cuts: 645     5873   38.52%
      0     0  1214517.2915   784  1933756.0000     Cuts: 635     6422   37.19%
      0     0  1230511.7912   786  1933756.0000     Cuts: 615     6893   36.37%
      0     0  1247974.8011   815  1933756.0000     Cuts: 468     7320   35.46%
      0     0  1257840.1780   818  1933756.0000     Cuts: 318     7647   34.95%
      0     0  1267553.9928   831  1933756.0000     Cuts: 368     7983   34.45%
      0     0  1277931.8897   828  1933756.0000     Cuts: 321     8329   33.91%
      0     0  1283585.1129   837  1933756.0000     Cuts: 395     8683   33.62%
      0     0  1288175.4190   847  1933756.0000     Cuts: 317     9022   33.38%
      0     0  1292661.3555   832  1933756.0000     Cuts: 263     9283   33.15%
      0     0  1294869.2622   851  1933756.0000     Cuts: 214     9487   33.04%
      0     0  1297131.6417   854  1933756.0000     Cuts: 193     9720   32.92%
      0     0  1298690.0881   870  1933756.0000     Cuts: 192     9910   32.84%
      0     0  1302104.8114   864  1933756.0000     Cuts: 165    10059   32.66%
      0     0  1303896.3356   867  1933756.0000     Cuts: 111    10172   32.57%
      0     0  1305351.1955   854  1933756.0000     Cuts: 168    10348   32.50%
      0     0  1306914.6184   846  1933756.0000     Cuts: 146    10502   32.42%
      0     0  1308559.0644   857  1933756.0000     Cuts: 128    10605   32.33%
      0     0  1309933.9369   855  1933756.0000      Cuts: 95    10708   32.26%
      0     0  1311591.1910   852  1933756.0000      Cuts: 78    10818   32.17%
      0     0  1312373.9032   849  1933756.0000      Cuts: 77    10914   32.13%
      0     0  1313153.4968   848  1933756.0000      Cuts: 92    11034   32.09%
      0     0  1313674.7036   848  1933756.0000      Cuts: 63    11122   32.07%
      0     0  1314180.9256   843  1933756.0000      Cuts: 97    11223   32.04%
      0     0  1315214.5900   875  1933756.0000      Cuts: 56    11323   31.99%
      0     0  1315594.5154   877  1933756.0000      Cuts: 66    11402   31.97%
*     0+    0                      1894044.0000  1315594.5154            30.54%
      0     0  1315768.2062   862  1894044.0000      Cuts: 31    11471   30.53%
*     0+    0                      1873400.0000  1315768.2062            29.77%
Detecting symmetries...
      0     2  1315768.2062   862  1873400.0000  1315768.2062    11471   29.77%
Elapsed time = 4.44 sec. (7296.26 ticks, tree = 0.02 MB, solutions = 6)
     28    18  1320281.6606   834  1873400.0000  1317352.0617    13812   29.68%
     79    73  1324642.5356   784  1873400.0000  1317352.0617    20235   29.68%
    109   101  1323896.3059   796  1873400.0000  1317352.0617    23230   29.68%
    146   135  1327172.8005   779  1873400.0000  1317352.0617    26850   29.68%
    177   112  1324370.2966   753  1873400.0000  1317352.0617    24221   29.68%
    233   208  1326926.2656   696  1873400.0000  1317352.0617    35264   29.68%
    298   274  1339916.3229   676  1873400.0000  1317352.0617    41891   29.68%
    354   331  1345688.0836   604  1873400.0000  1317352.0617    46465   29.68%
    407   349  1329896.1713   707  1873400.0000  1317352.0617    48796   29.68%

GUB cover cuts applied:  0
Cover cuts applied:  10
Implied bound cuts applied:  29
Flow cuts applied:  457
Mixed integer rounding cuts applied:  1061
Flow path cuts applied:  56
Multi commodity flow cuts applied:  42

Root node processing (before b&c):
  Real time             =    4.43 sec. (7288.53 ticks)
Parallel b&c, 8 threads:
  Real time             =    1.65 sec. (2715.34 ticks)
  Sync time (average)   =    0.21 sec.
  Wait time (average)   =    0.00 sec.
                          ------------
Total (root+branch&cut) =    6.07 sec. (10003.87 ticks)
Gap: 29.68%
Upper bound: 1.8734e+06
Lower bound: 1.31735e+06
End of CPLEX run. Time: 6.07535 seconds

===== New CPLEX run =====
Instance: /home/yorig/tuner/mpils-tests/instances/miplib/easy/lotsize.mps
Config: /scratch/yorig/mpils-results-grid-ticks-10000/easy/16proc/seed-9/4_lotsize_seed-9_20260425_202405/iterated_local_search/run_2_worker_2/ils_config_8889319765860217357.prm
========================

Selected objective sense:  MINIMIZE
Selected objective  name:  R1921
Selected RHS        name:  B
Selected bound      name:  BOUND
Version identifier: 22.1.2.0 | 2024-11-26 | 0edbb82fd
CPXPARAM_Threads                                 8
CPXPARAM_Parallel                                1
CPXPARAM_MIP_Cuts_Cliques                        -1
CPXPARAM_MIP_Strategy_VariableSelect             1
CPXPARAM_MIP_Cuts_FlowCovers                     1
CPXPARAM_MIP_Cuts_Implied                        2
CPXPARAM_MIP_Cuts_GUBCovers                      2
CPXPARAM_MIP_Cuts_Gomory                         2
CPXPARAM_MIP_Cuts_PathCut                        2
CPXPARAM_MIP_Cuts_MIRCut                         1
CPXPARAM_DetTimeLimit                            10000
Tried aggregator 1 time.
MIP Presolve eliminated 595 rows and 0 columns.
MIP Presolve added 1190 rows and 0 columns.
MIP Presolve modified 10 coefficients.
Reduced MIP has 2515 rows, 2985 columns, and 7755 nonzeros.
Reduced MIP has 1195 binaries, 0 generals, 0 SOSs, and 0 indicators.
Presolve time = 0.00 sec. (4.53 ticks)
Probing fixed 0 vars, tightened 5487 bounds.
Probing time = 0.01 sec. (18.38 ticks)
Tried aggregator 2 times.
Detecting symmetries...
MIP Presolve modified 1206 coefficients.
Aggregator did 10 substitutions.
Reduced MIP has 2505 rows, 2975 columns, and 7735 nonzeros.
Reduced MIP has 1195 binaries, 0 generals, 0 SOSs, and 0 indicators.
Presolve time = 0.01 sec. (6.66 ticks)
Probing fixed 0 vars, tightened 2401 bounds.
Probing time = 0.00 sec. (6.41 ticks)
Clique table members: 190.
MIP emphasis: balance optimality and feasibility.
MIP search method: dynamic search.
Parallel mode: deterministic, using up to 8 threads.
Root relaxation solution time = 0.01 sec. (9.71 ticks)

        Nodes                                         Cuts/
   Node  Left     Objective  IInf  Best Integer    Best Bound    ItCnt     Gap

      0     0   348385.3466   472                 348385.3466      882         
      0     0   527202.7677   563                   Cuts: 726     1982         
      0     0   756726.3449   607                   Cuts: 726     2909         
*     0+    0                       1.01740e+07   756726.3449            92.56%
*     0+    0                      7973370.0000   756726.3449            90.51%
      0     0   909574.4787   740  7973370.0000     Cuts: 726     3716   88.59%
      0     0  1002405.6496   691  7973370.0000     Cuts: 726     4462   87.43%
      0     0  1084805.3845   714  7973370.0000     Cuts: 726     5195   86.39%
Detecting symmetries...
*     0+    0                      2214406.0000  1084805.3845            51.01%
      0     0  1125814.4333   740  2214406.0000     Cuts: 726     5850   49.16%
*     0+    0                      1941716.0000  1125814.4333            42.02%
      0     0  1165749.1451   721  1941716.0000     Cuts: 709     6419   39.96%
      0     0  1195732.7348   771  1941716.0000     Cuts: 725     6965   38.42%
      0     0  1219895.0470   798  1941716.0000     Cuts: 609     7470   37.17%
      0     0  1234930.8097   774  1941716.0000     Cuts: 440     7932   36.40%
      0     0  1264072.6016   765  1941716.0000     Cuts: 575     8507   34.90%
      0     0  1278448.6206   773  1941716.0000     Cuts: 554     8958   34.16%
      0     0  1287801.9812   823  1941716.0000     Cuts: 451     9308   33.68%
      0     0  1293897.5310   811  1941716.0000     Cuts: 366     9587   33.36%
      0     0  1299971.7184   832  1941716.0000     Cuts: 330     9909   33.05%
      0     0  1304897.1769   835  1941716.0000     Cuts: 284    10161   32.80%
      0     0  1308144.9620   844  1941716.0000     Cuts: 285    10389   32.63%
      0     0  1310928.0203   856  1941716.0000     Cuts: 175    10551   32.49%
      0     0  1313456.3863   850  1941716.0000     Cuts: 130    10727   32.36%
      0     0  1315372.7592   852  1941716.0000     Cuts: 199    10848   32.26%
      0     0  1317177.2256   832  1941716.0000      Cuts: 71    10969   32.16%
      0     0  1318267.9150   865  1941716.0000     Cuts: 118    11123   32.11%
      0     0  1320544.5607   858  1941716.0000     Cuts: 138    11261   31.99%
      0     0  1322086.3476   867  1941716.0000     Cuts: 197    11407   31.91%
      0     0  1323386.8196   840  1941716.0000     Cuts: 125    11524   31.84%
      0     0  1323809.6937   845  1941716.0000      Cuts: 67    11600   31.82%
      0     0  1324574.4968   848  1941716.0000     Cuts: 125    11711   31.78%
      0     0  1325423.6809   836  1941716.0000      Cuts: 80    11826   31.74%
      0     0  1326035.9575   851  1941716.0000      Cuts: 92    11908   31.71%
      0     0  1326521.6386   853  1941716.0000      Cuts: 49    11960   31.68%
      0     0  1326843.3632   854  1941716.0000      Cuts: 59    12009   31.67%
*     0+    0                      1912756.0000  1326843.3632            30.63%
      0     0  1327344.6952   866  1912756.0000      Cuts: 55    12066   30.61%
      0     0  1327671.1164   857  1912756.0000      Cuts: 23    12120   30.59%
Detecting symmetries...
      0     2  1327671.1164   857  1912756.0000  1327671.1164    12120   30.59%
Elapsed time = 4.49 sec. (7428.89 ticks, tree = 0.02 MB, solutions = 5)
     10     3  1328069.8646   845  1912756.0000  1327694.8357    12225   30.59%
     59    24  1331417.0918   794  1912756.0000  1328239.2138    14039   30.56%
    115    82  1333988.3051   752  1912756.0000  1328239.2138    19825   30.56%
    195   155  1346357.6138   696  1912756.0000  1328239.2138    27819   30.56%
    250   236  1351669.0902   662  1912756.0000  1328239.2138    34753   30.56%
    310   271  1346599.5396   656  1912756.0000  1328239.2138    38275   30.56%
    365   337  1349996.0381   676  1912756.0000  1328239.2138    44519   30.56%
    441   333  1341990.3974   681  1912756.0000  1328239.2138    43883   30.56%
    511   435  1359225.9769   607  1912756.0000  1328239.2138    53679   30.56%

GUB cover cuts applied:  0
Cover cuts applied:  11
Implied bound cuts applied:  28
Flow cuts applied:  462
Mixed integer rounding cuts applied:  1069
Flow path cuts applied:  24
Multi commodity flow cuts applied:  37
Gomory fractional cuts applied:  3

Root node processing (before b&c):
  Real time             =    4.47 sec. (7421.73 ticks)
Parallel b&c, 8 threads:
  Real time             =    1.71 sec. (2583.06 ticks)
  Sync time (average)   =    0.29 sec.
  Wait time (average)   =    0.00 sec.
                          ------------
Total (root+branch&cut) =    6.18 sec. (10004.79 ticks)
Gap: 30.56%
Upper bound: 1.91276e+06
Lower bound: 1.32824e+06
End of CPLEX run. Time: 6.17928 seconds

===== New CPLEX run =====
Instance: /home/yorig/tuner/mpils-tests/instances/miplib/easy/lotsize.mps
Config: /scratch/yorig/mpils-results-grid-ticks-10000/easy/16proc/seed-9/4_lotsize_seed-9_20260425_202405/iterated_local_search/run_2_worker_2/ils_config_13870142286516975510.prm
========================

Selected objective sense:  MINIMIZE
Selected objective  name:  R1921
Selected RHS        name:  B
Selected bound      name:  BOUND
Version identifier: 22.1.2.0 | 2024-11-26 | 0edbb82fd
CPXPARAM_Threads                                 8
CPXPARAM_Parallel                                1
CPXPARAM_MIP_Cuts_Cliques                        -1
CPXPARAM_MIP_Strategy_VariableSelect             -1
CPXPARAM_MIP_Cuts_FlowCovers                     1
CPXPARAM_MIP_Cuts_Implied                        2
CPXPARAM_MIP_Cuts_GUBCovers                      2
CPXPARAM_MIP_Cuts_Gomory                         -1
CPXPARAM_MIP_Cuts_PathCut                        2
CPXPARAM_MIP_Cuts_MIRCut                         1
CPXPARAM_DetTimeLimit                            10000
Tried aggregator 1 time.
MIP Presolve eliminated 595 rows and 0 columns.
MIP Presolve added 1190 rows and 0 columns.
MIP Presolve modified 10 coefficients.
Reduced MIP has 2515 rows, 2985 columns, and 7755 nonzeros.
Reduced MIP has 1195 binaries, 0 generals, 0 SOSs, and 0 indicators.
Presolve time = 0.00 sec. (4.53 ticks)
Probing fixed 0 vars, tightened 5487 bounds.
Probing time = 0.01 sec. (18.38 ticks)
Tried aggregator 2 times.
Detecting symmetries...
MIP Presolve modified 1206 coefficients.
Aggregator did 10 substitutions.
Reduced MIP has 2505 rows, 2975 columns, and 7735 nonzeros.
Reduced MIP has 1195 binaries, 0 generals, 0 SOSs, and 0 indicators.
Presolve time = 0.01 sec. (6.66 ticks)
Probing fixed 0 vars, tightened 2401 bounds.
Probing time = 0.00 sec. (6.41 ticks)
Clique table members: 190.
MIP emphasis: balance optimality and feasibility.
MIP search method: dynamic search.
Parallel mode: deterministic, using up to 8 threads.
Root relaxation solution time = 0.01 sec. (9.71 ticks)

        Nodes                                         Cuts/
   Node  Left     Objective  IInf  Best Integer    Best Bound    ItCnt     Gap

      0     0   348385.3466   472                 348385.3466      882         
      0     0   583577.4049   435                   Cuts: 726     1819         
      0     0   818318.0498   693                   Cuts: 726     2654         
*     0+    0                       1.01740e+07   818318.0498            91.96%
*     0+    0                      7973370.0000   818318.0498            89.74%
      0     0   947721.4943   683  7973370.0000     Cuts: 726     3340   88.11%
      0     0  1038019.7306   756  7973370.0000     Cuts: 726     3989   86.98%
      0     0  1103123.4400   758  7973370.0000     Cuts: 726     4650   86.16%
Detecting symmetries...
      0     0  1153435.3788   763  7973370.0000     Cuts: 711     5305   85.53%
      0     0  1188850.0371   759  7973370.0000     Cuts: 599     5847   85.09%
      0     0  1211880.0356   769  7973370.0000     Cuts: 564     6382   84.80%
      0     0  1228362.5064   774  7973370.0000     Cuts: 554     6807   84.59%
      0     0  1243002.4758   781  7973370.0000     Cuts: 426     7213   84.41%
      0     0  1255283.3517   788  7973370.0000     Cuts: 332     7562   84.26%
      0     0  1264534.8749   824  7973370.0000     Cuts: 343     7867   84.14%
      0     0  1270900.4117   814  7973370.0000     Cuts: 273     8162   84.06%
      0     0  1275879.8704   836  7973370.0000     Cuts: 330     8416   84.00%
      0     0  1280479.4650   839  7973370.0000     Cuts: 292     8656   83.94%
      0     0  1283238.6202   834  7973370.0000     Cuts: 171     8853   83.91%
      0     0  1286294.4271   849  7973370.0000     Cuts: 195     9012   83.87%
      0     0  1288618.4474   875  7973370.0000     Cuts: 191     9179   83.84%
      0     0  1290446.9329   862  7973370.0000     Cuts: 169     9374   83.82%
      0     0  1292669.7234   854  7973370.0000     Cuts: 135     9549   83.79%
      0     0  1294450.4886   856  7973370.0000     Cuts: 184     9725   83.77%
      0     0  1295661.5637   872  7973370.0000     Cuts: 157     9844   83.75%
      0     0  1296448.4810   872  7973370.0000      Cuts: 92     9945   83.74%
      0     0  1297213.7754   872  7973370.0000     Cuts: 130    10031   83.73%
      0     0  1297748.3370   870  7973370.0000      Cuts: 69    10111   83.72%
      0     0  1298089.2854   879  7973370.0000      Cuts: 51    10156   83.72%
      0     0  1298927.7335   872  7973370.0000      Cuts: 92    10234   83.71%
      0     0  1299660.5880   883  7973370.0000      Cuts: 56    10286   83.70%
      0     0  1300111.2821   870  7973370.0000      Cuts: 55    10351   83.69%
      0     0  1300209.5409   875  7973370.0000      Cuts: 45    10394   83.69%
      0     0  1300576.1894   876  7973370.0000      Cuts: 21    10437   83.69%
Detecting symmetries...
      0     2  1300576.1894   876  7973370.0000  1304133.6717    10437   83.64%
Elapsed time = 4.01 sec. (6646.63 ticks, tree = 0.02 MB, solutions = 2)
     27     9  1334257.0526   853  7973370.0000  1304133.6717    10852   83.64%
     98    83  1311868.6487   783  7973370.0000  1304133.6717    14388   83.64%
    184   135  1323138.6955   743  7973370.0000  1304133.6717    17859   83.64%
    296   256  1316374.6638   784  7973370.0000  1304133.6717    24188   83.64%
    433   346  1336639.7979   662  7973370.0000  1304133.6717    27845   83.64%
    520   468  1338154.0206   636  7973370.0000  1304133.6717    33815   83.64%
    596   528  1325925.8592   755  7973370.0000  1304133.6717    36560   83.64%
    696   653  1313681.5384   716  7973370.0000  1304133.6717    41230   83.64%
    794   693  1329193.5147   594  7973370.0000  1304133.6717    42523   83.64%
   1557  1286  1391532.8477   387  7973370.0000  1304133.6717    62640   83.64%
Elapsed time = 6.05 sec. (9823.07 ticks, tree = 1.94 MB, solutions = 2)

GUB cover cuts applied:  0
Cover cuts applied:  11
Implied bound cuts applied:  26
Flow cuts applied:  464
Mixed integer rounding cuts applied:  1025
Flow path cuts applied:  55
Multi commodity flow cuts applied:  43

Root node processing (before b&c):
  Real time             =    3.99 sec. (6638.73 ticks)
Parallel b&c, 8 threads:
  Real time             =    2.17 sec. (3362.62 ticks)
  Sync time (average)   =    0.23 sec.
  Wait time (average)   =    0.00 sec.
                          ------------
Total (root+branch&cut) =    6.16 sec. (10001.35 ticks)
Gap: 83.64%
Upper bound: 7.97337e+06
Lower bound: 1.30413e+06
End of CPLEX run. Time: 6.16254 seconds
